Optimal - objective value 499.00000000
      0 C                       499                       0
      1 x_0_0                   101                       0
      2 x_0_1                   286                       0
      3 x_0_2                   292                       0
      4 x_0_3                   293                       0
      5 x_0_4       299.999999999963                       0
      6 x_0_5                   405                       0
      7 x_1_0       3.99999999999979                       0
      8 x_1_1                   186                       0
      9 x_1_2                   191                       0
     10 x_1_3       290.999999999964                       0
     11 x_1_4                   297                       0
     12 x_1_5                   495                       0
     13 x_2_0       0.999999999999885                       0
     14 x_2_1       193.999999999963                       0
     15 x_2_2                   293                       0
     16 x_2_3                   300                       0
     17 x_2_4       396.999999999963                       0
     18 x_2_5       401.999999999957                       0
     19 x_3_0       95.9999999999999                       0
     20 x_3_1       96.9999999999999                       0
     21 x_3_2                   195                       0
     22 x_3_3                   198                       0
     23 x_3_4       294.999999999963                       0
     24 x_3_5       395.999999999957                       0
     26 x_4_1                   297                       0
     27 x_4_2                   393                       0
     28 x_4_3                   396                       0
     29 x_4_4                   400                       0
     30 x_4_5                   405                       0
     32 x_5_1                    96                       0
     33 x_5_2                   190                       0
     34 x_5_3       292.999999999963                       0
     35 x_5_4       294.999999999963                       0
     36 x_5_5                   393                       0
     38 x_6_1                     1                       0
     39 x_6_2                     4                       0
     40 x_6_3       195.999999999963                       0
     41 x_6_4                   305                       0
     42 x_6_5                   400                       0
     44 x_7_1       96.999999999982                       0
     45 x_7_2       99.999999999982                       0
     46 x_7_3                   198                       0
     47 x_7_4                   292                       0
     48 x_7_5                   297                       0
     50 y_0_1_1                   1                       0
     52 y_0_1_3                   1                       0
     53 y_0_1_4                   1                       0
     54 y_0_1_5                   1                       0
     56 y_0_2_1                   1                       0
     57 y_0_2_2                   1                       0
     61 y_0_3_0                   1                       0
     62 y_0_3_1                   1                       0
     65 y_0_3_4                   1                       0
     66 y_0_3_5                   1                       0
     68 y_0_4_1                   1                       0
     72 y_0_4_5                   1                       0
     73 y_0_5_0                   1                       0
     74 y_0_5_1                   1                       0
     76 y_0_5_3                   1                       0
     77 y_0_5_4                   1                       0
     78 y_0_5_5                   1                       0
     80 y_0_6_1                   1                       0
     81 y_0_6_2                   1                       0
     82 y_0_6_3                   1                       0
     83 y_0_6_4                   1                       0
     85 y_0_7_0                   1                       0
     86 y_0_7_1                   1                       0
     89 y_0_7_4                   1                       0
     90 y_0_7_5                   1                       0
     93 y_1_2_2                   1                       0
     97 y_1_3_0                   1                       0
     99 y_1_3_2                   1                       0
    101 y_1_3_4                   1                       0
    105 y_1_4_2                   1                       0
    108 y_1_4_5                   1                       0
    109 y_1_5_0                   1                       0
    111 y_1_5_2                   1                       0
    112 y_1_5_3                   1                       0
    116 y_1_6_1                   1                       0
    117 y_1_6_2                   1                       0
    118 y_1_6_3                   1                       0
    119 y_1_6_4                   1                       0
    121 y_1_7_0                   1                       0
    123 y_1_7_2                   1                       0
    125 y_1_7_4                   1                       0
    127 y_2_3_0                   1                       0
    130 y_2_3_3                   1                       0
    131 y_2_3_4                   1                       0
    132 y_2_3_5                   1                       0
    136 y_2_4_3                   1                       0
    138 y_2_4_5                   1                       0
    139 y_2_5_0                   1                       0
    142 y_2_5_3                   1                       0
    143 y_2_5_4                   1                       0
    144 y_2_5_5                   1                       0
    146 y_2_6_1                   1                       0
    147 y_2_6_2                   1                       0
    148 y_2_6_3                   1                       0
    149 y_2_6_4                   1                       0
    151 y_2_7_0                   1                       0
    152 y_2_7_1                   1                       0
    154 y_2_7_3                   1                       0
    155 y_2_7_4                   1                       0
    156 y_2_7_5                   1                       0
    160 y_3_4_3                   1                       0
    162 y_3_4_5                   1                       0
    163 y_3_5_0                   1                    2217
    164 y_3_5_1                   1                       0
    166 y_3_5_3                   1                       0
    168 y_3_5_5                   1                       0
    170 y_3_6_1                   1                       0
    171 y_3_6_2                   1                       0
    172 y_3_6_3                   1                       0
    176 y_3_7_1                   1                       0
    178 y_3_7_3                   1                       0
    179 y_3_7_4                   1                       0
    181 y_4_5_0                   1                       0
    182 y_4_5_1                   1                       0
    184 y_4_5_3                   1                       0
    185 y_4_5_4                   1                       0
    188 y_4_6_1                   1                       0
    189 y_4_6_2                   1                       0
    190 y_4_6_3                   1                       0
    191 y_4_6_4                   1                       0
    193 y_4_7_0                   1                       0
    194 y_4_7_1                   1                       0
    195 y_4_7_2                   1                    2217
    196 y_4_7_3                   1                       0
    197 y_4_7_4                   1                       0
    200 y_5_6_1                   1                       0
    201 y_5_6_2                   1                       0
    202 y_5_6_3                   1                       0
    203 y_5_6_4                   1                       0
    206 y_5_7_1                   1                       0
    207 y_5_7_2                   1                       0
    209 y_5_7_4                   1                       0
    211 y_6_7_0                   1                       0
    215 y_6_7_4                   1                       0
    216 y_6_7_5                   1                       0
